0-137-248-124-149-321-241-169-286-53-160-24-147-75-187-0
0-65-236-87-246-254-179-234-194-210-154-167-117-116-224-8-209-227-140-0
0-201-153-308-307-177-102-109-161-243-108-240-122-171-172-18-266-270-0
0-30-16-52-264-175-274-299-114-238-289-32-19-0
0-15-162-183-133-253-163-95-184-27-164-21-312-82-186-231-258-247-100-63-78-260-48-0
0-220-125-221-275-56-197-199-130-73-310-94-70-276-156-159-101-58-0
0-191-283-96-278-280-188-268-316-257-80-320-29-43-118-284-301-216-103-139-113-0
0-45-174-204-222-232-127-208-129-146-223-202-230-98-269-62-196-255-0
0-145-92-261-3-40-26-142-12-215-86-41-173-93-235-0
0-138-50-212-106-292-97-42-295-143-120-267-90-74-181-88-263-195-309-0
0-134-300-5-66-323-46-213-37-57-44-318-237-110-64-11-0
0-249-68-217-294-324-168-60-136-144-265-228-123-111-6-20-250-219-242-14-313-290-170-0
0-141-71-305-155-13-67-89-282-112-211-119-152-131-81-273-314-0
0-91-287-83-79-239-28-69-303-1-207-198-9-107-128-84-315-0
0-105-47-99-121-218-115-259-59-244-25-272-291-7-39-49-148-0
0-192-256-189-2-176-229-293-33-22-17-205-51-285-0
0-233-23-225-54-157-132-178-245-317-34-279-306-55-271-304-322-126-0
0-36-150-288-4-297-76-61-182-85-158-31-166-277-226-180-298-35-77-0
0-262-281-252-296-203-190-135-185-193-165-206-10-72-302-200-251-214-38-151-104-311-319-0

0-137-248-124-149-321-241-169-286-53-160-24-147-75-187-0
0-65-236-87-246-254-179-234-194-210-154-167-117-116-224-8-209-227-140-0
0-201-153-308-307-177-102-109-161-243-108-240-122-171-172-18-266-270-0
0-30-16-52-264-175-274-299-114-238-289-32-19-0
0-15-162-183-133-253-163-95-184-27-164-21-312-82-186-231-258-247-100-63-78-260-48-0
0-220-125-221-275-56-197-199-130-73-310-94-70-276-156-159-101-58-0
0-191-283-96-278-280-188-268-316-257-80-320-29-43-118-284-301-216-103-139-113-0
0-45-174-204-222-232-127-208-129-146-223-202-230-98-269-62-196-255-0
0-145-92-261-3-40-26-142-12-215-86-41-173-93-235-0
0-138-50-212-106-292-97-42-295-143-120-267-90-74-181-88-263-195-309-0
0-134-300-5-66-323-46-213-37-57-44-318-237-110-64-11-0
0-249-68-217-294-324-168-60-136-144-265-228-123-111-6-20-250-219-242-14-313-290-170-0
0-141-71-305-155-13-67-89-282-112-211-119-152-131-81-273-314-0
0-91-287-83-79-239-28-69-303-1-207-198-9-107-128-84-315-0
0-105-47-99-121-218-115-259-59-244-25-272-291-7-39-49-148-0
0-192-256-189-2-176-229-293-33-22-17-205-51-285-0
0-233-23-225-54-157-132-178-245-317-34-279-306-55-271-304-322-126-0
0-36-150-288-4-297-76-61-182-85-158-31-166-277-226-180-298-35-77-0
0-262-281-252-296-203-190-135-185-193-165-206-10-72-302-200-251-214-38-151-104-311-319-0

0-137-248-124-149-321-241-169-286-53-160-24-147-75-187-0
0-65-236-87-246-254-179-234-194-210-154-167-117-116-224-8-209-227-140-0
0-201-153-308-307-177-102-109-161-243-108-240-122-171-172-18-266-270-0
0-30-16-52-264-175-274-299-114-238-289-32-19-0
0-15-162-183-133-253-163-95-184-27-164-21-312-82-186-231-258-247-100-63-78-260-48-0
0-220-125-221-275-56-197-199-130-73-310-94-70-276-156-159-101-58-0
0-191-283-96-278-280-188-268-316-257-80-320-29-43-118-284-301-216-103-139-113-0
0-45-174-204-222-232-127-208-129-146-223-202-230-98-269-62-196-255-0
0-145-92-261-3-40-26-142-12-215-86-41-173-93-235-0
0-138-50-212-106-292-97-42-295-143-120-267-90-74-181-88-263-195-309-0
0-134-300-5-66-323-46-213-37-57-44-318-237-110-64-11-0
0-249-68-217-294-324-168-60-136-144-265-228-123-111-6-20-250-219-242-14-313-290-170-0
0-141-71-305-155-13-67-89-282-112-211-119-152-131-81-273-314-0
0-91-287-83-79-239-28-69-303-1-207-198-9-107-128-84-315-0
0-105-47-99-121-218-115-259-59-244-25-272-291-7-39-49-148-0
0-192-256-189-2-176-229-293-33-22-17-205-51-285-0
0-233-23-225-54-157-132-178-245-317-34-279-306-55-271-304-322-126-0
0-36-150-288-4-297-76-61-182-85-158-31-166-277-226-180-298-35-77-0
0-262-281-252-296-203-190-135-185-193-165-206-10-72-302-200-251-214-38-151-104-311-319-0

0-137-248-124-149-321-241-169-286-53-160-24-147-75-187-0
0-65-236-87-246-254-179-234-194-210-154-167-117-116-224-8-209-227-140-0
0-201-153-308-307-177-102-109-161-243-108-240-122-171-172-18-266-270-0
0-30-16-52-264-175-274-299-114-238-289-32-19-0
0-15-162-183-133-253-163-95-184-27-164-21-312-82-186-231-258-247-100-63-78-260-48-0
0-220-125-221-275-56-197-199-130-73-310-94-70-276-156-159-101-58-0
0-191-283-96-278-280-188-268-316-257-80-320-29-43-118-284-301-216-103-139-113-0
0-45-174-204-222-232-127-208-129-146-223-202-230-98-269-62-196-255-0
0-145-92-261-3-40-26-142-12-215-86-41-173-93-235-0
0-138-50-212-106-292-97-42-295-143-120-267-90-74-181-88-263-195-309-0
0-134-300-5-66-323-46-213-37-57-44-318-237-110-64-11-0
0-249-68-217-294-324-168-60-136-144-265-228-123-111-6-20-250-219-242-14-313-290-170-0
0-141-71-305-155-13-67-89-282-112-211-119-152-131-81-273-314-0
0-91-287-83-79-239-28-69-303-1-207-198-9-107-128-84-315-0
0-105-47-99-121-218-115-259-59-244-25-272-291-7-39-49-148-0
0-192-256-189-2-176-229-293-33-22-17-205-51-285-0
0-233-23-225-54-157-132-178-245-317-34-279-306-55-271-304-322-126-0
0-36-150-288-4-297-76-61-182-85-158-31-166-277-226-180-298-35-77-0
0-262-281-252-296-203-190-135-185-193-165-206-10-72-302-200-251-214-38-151-104-311-319-0

0-137-248-124-149-321-241-169-286-53-160-24-147-75-187-0
0-65-236-87-246-254-179-234-194-210-154-167-117-116-224-8-209-227-140-0
0-201-153-308-307-177-102-109-161-243-108-240-122-171-172-18-266-270-0
0-30-16-52-264-175-274-299-114-238-289-32-19-0
0-15-162-183-133-253-163-95-184-27-164-21-312-82-186-231-258-247-100-63-78-260-48-0
0-220-125-221-275-56-197-199-130-73-310-94-70-276-156-159-101-58-0
0-191-283-96-278-280-188-268-316-257-80-320-29-43-118-284-301-216-103-139-113-0
0-45-174-204-222-232-127-208-129-146-223-202-230-98-269-62-196-255-0
0-145-92-261-3-40-26-142-12-215-86-41-173-93-235-0
0-138-50-212-106-292-97-42-295-143-120-267-90-74-181-88-263-195-309-0
0-134-300-5-66-323-46-213-37-57-44-318-237-110-64-11-0
0-249-68-217-294-324-168-60-136-144-265-228-123-111-6-20-250-219-242-14-313-290-170-0
0-141-71-305-155-13-67-89-282-112-211-119-152-131-81-273-314-0
0-91-287-83-79-239-28-69-303-1-207-198-9-107-128-84-315-0
0-105-47-99-121-218-115-259-59-244-25-272-291-7-39-49-148-0
0-192-256-189-2-176-229-293-33-22-17-205-51-285-0
0-233-23-225-54-157-132-178-245-317-34-279-306-55-271-304-322-126-0
0-36-150-288-4-297-76-61-182-85-158-31-166-277-226-180-298-35-77-0
0-262-281-252-296-203-190-135-185-193-165-206-10-72-302-200-251-214-38-151-104-311-319-0

